x = 15;
y = 10;
c = 63;
n = 21;

p = [93  45  77  53  15  14  45  100  31  16  49  91  24  98  59  92  97  72  54  28  19];
w = [6  2  1  5  8  5  3  8  8  2  3  10  10  10  7  4  2  1  10  1  6];
s = [2  7  10  5  9  3  10  3  10  8  1  10  6  1  8  6  7  8  8  5  7];
